15
2 0 2
2 1 4
3 2 3
4 0 1
4 1 3
4 2 1
4 3 4
5 1 3
5 3 1
6 0 1
6 3 4
6 4 3
7 2 2
7 4 1
7 6 3
8 0 4
8 1 3
8 2 3
8 5 4
8 6 1
8 7 4
9 1 1
9 2 4
9 8 1
10 5 3
10 6 3
10 7 4
11 1 1
11 4 2
11 6 1
11 8 2
11 9 1
12 0 1
12 1 4
12 6 2
12 7 4
12 9 4
13 1 1
13 4 2
13 7 2
13 8 4
13 10 2
14 0 2
